c preprocessed version of BN_89, 38 vertices, 394 edges
p td 38 394
0 1
10 0
13 0
9 0
14 0
18 0
1 2
1 3
11 1
14 1
17 1
18 1
21 1
2 3
11 2
12 2
17 2
21 2
4 3
3 5
11 3
12 3
19 3
4 5
10 4
13 4
12 4
9 4
19 4
6 5
12 5
19 5
6 7
8 6
8 7
9 8
9 10
9 12
9 13
9 15
9 14
9 16
9 18
9 17
19 9
20 9
22 9
11 10
10 12
10 13
14 10
11 12
11 13
13 12
17 12
18 12
19 12
14 13
14 15
16 14
14 18
14 17
19 14
20 14
16 15
17 15
15 18
19 15
20 15
16 17
16 18
19 16
20 16
22 16
17 18
19 17
20 17
19 18
20 18
22 18
19 20
19 21
22 19
21 20
20 22
21 22
23 0
23 29
23 21
23 22
23 11
23 12
23 10
23 13
23 26
23 32
23 36
23 33
23 34
23 27
23 31
23 35
23 9
23 37
23 19
23 24
23 25
23 16
23 14
23 28
23 30
23 20
23 15
23 18
24 37
24 2
24 7
24 8
24 29
24 26
24 32
24 10
24 12
24 13
24 33
24 36
24 27
24 9
24 28
24 30
24 17
24 18
24 25
24 16
24 14
24 15
24 19
24 31
24 34
24 20
24 35
25 37
25 0
25 1
25 3
25 4
25 5
25 29
25 26
25 32
25 10
25 12
25 13
25 33
25 36
25 27
25 9
25 15
25 14
25 28
25 30
25 17
25 18
25 16
25 19
25 31
25 34
25 20
25 35
25 22
26 37
26 29
26 32
26 10
26 13
26 36
26 33
26 27
26 16
26 14
26 28
26 30
26 15
26 18
26 19
26 31
26 34
26 35
27 37
27 0
27 1
27 29
27 32
27 11
27 10
27 12
27 13
27 33
27 36
27 16
27 28
27 30
27 17
27 18
27 19
27 31
27 34
27 20
27 35
27 22
28 37
28 2
28 29
28 32
28 33
28 36
28 9
28 15
28 14
28 16
28 30
28 18
28 17
28 19
28 31
28 34
28 20
28 35
29 37
29 0
29 6
29 7
29 8
29 11
29 10
29 13
29 36
29 32
29 33
29 9
29 16
29 14
29 30
29 15
29 19
29 31
29 34
29 35
30 37
30 8
30 32
30 33
30 36
30 9
30 15
30 14
30 16
30 18
30 17
30 19
30 31
30 34
30 20
30 35
30 22
31 37
31 19
31 0
31 1
31 2
31 3
31 21
31 22
31 32
31 11
31 10
31 13
31 12
31 33
31 36
31 34
31 35
31 9
31 16
31 14
31 17
31 20
31 18
32 37
32 0
32 1
32 5
32 6
32 7
32 8
32 11
32 36
32 33
32 16
32 14
32 15
32 18
32 19
32 34
32 20
32 35
32 22
33 37
33 0
33 1
33 2
33 3
33 6
33 11
33 10
33 12
33 13
33 36
33 9
33 16
33 14
33 17
33 15
33 18
33 19
33 34
33 20
33 35
33 22
34 37
34 19
34 21
34 22
34 0
34 1
34 2
34 3
34 11
34 10
34 13
34 12
34 36
34 35
34 9
34 16
34 14
34 17
34 20
34 15
34 18
35 37
35 19
35 21
35 20
35 22
35 1
35 2
35 3
35 4
35 5
35 7
35 11
35 10
35 13
35 12
35 36
35 9
35 16
35 17
35 18
36 37
36 0
36 11
36 10
36 13
36 9
36 16
36 14
36 15
36 19
37 2
37 3
37 10
37 13
37 9
37 15
37 14
37 16
37 18
37 17
37 21
37 20
37 19
37 22
